
Gurobi 10.0.3 (linux64, gurobi_cl) logging started Thu Nov  9 12:53:13 2023

Set parameter Username
Set parameter TimeLimit to value 3600
Set parameter LogFile to value "RCPSP_1408.log"
Set parameter Threads to value 32
Academic license - for non-commercial use only - expires 2024-10-30
Using license file /home/jrivera6/gurobi-licenses/v1003/compute-0-34/gurobi.lic

Gurobi Optimizer version 10.0.3 build v10.0.3rc0 (linux64)
Copyright (c) 2023, Gurobi Optimization, LLC

Read MPS format model from file RCPSP_1408.mps
Reading time = 0.09 seconds
RCPSP_1408: 42975 rows, 17020 columns, 159179 nonzeros

CPU model: Intel(R) Xeon(R) Gold 6130 CPU @ 2.10GHz, instruction set [SSE2|AVX|AVX2|AVX512]
Thread count: 32 physical cores, 32 logical processors, using up to 32 threads

Optimize a model with 42975 rows, 17020 columns and 159179 nonzeros
Model fingerprint: 0x44221f7e
Variable types: 92 continuous, 16928 integer (16928 binary)
Coefficient statistics:
  Matrix range     [1e+00, 5e+02]
  Objective range  [1e+00, 1e+00]
  Bounds range     [1e+00, 1e+00]
  RHS range        [1e+00, 5e+02]
Presolve removed 7284 rows and 1313 columns (presolve time = 5s) ...
Presolve removed 12371 rows and 3441 columns
Presolve time: 9.64s
Presolved: 30604 rows, 13579 columns, 118787 nonzeros
Variable types: 91 continuous, 13488 integer (13488 binary)

Deterministic concurrent LP optimizer: primal and dual simplex (primal and dual model)
Showing first log only...

Root relaxation presolved: 30604 rows, 13579 columns, 118787 nonzeros


Root simplex log...

Iteration    Objective       Primal Inf.    Dual Inf.      Time
       0    9.7502538e+01   1.857883e-02   1.050801e+08     11s
Concurrent spin time: 0.13s

Solved with dual simplex (primal model)

Root relaxation: objective 9.700000e+01, 4296 iterations, 0.97 seconds (0.11 work units)
Total elapsed time = 16.20s

    Nodes    |    Current Node    |     Objective Bounds      |     Work
 Expl Unexpl |  Obj  Depth IntInf | Incumbent    BestBd   Gap | It/Node Time

     0     0   97.00000    0  429          -   97.00000      -     -   17s
     0     0   97.00000    0  904          -   97.00000      -     -   36s
     0     0   97.00000    0  884          -   97.00000      -     -   36s
     0     0   97.00000    0  878          -   97.00000      -     -   37s
     0     0   97.00000    0  875          -   97.00000      -     -   38s
     0     0   97.00000    0  853          -   97.00000      -     -   39s
     0     0   97.00000    0  853          -   97.00000      -     -   39s
     0     0   97.00000    0  860          -   97.00000      -     -   39s
     0     0   97.00000    0  858          -   97.00000      -     -   39s
     0     0   97.00000    0  343          -   97.00000      -     -   51s
     0     0   97.00000    0  474          -   97.00000      -     -   52s
     0     0   97.00000    0  481          -   97.00000      -     -   60s
     0     0   97.00000    0  719          -   97.00000      -     -   62s
     0     0   97.00000    0  704          -   97.00000      -     -   62s
     0     0   97.00000    0  515          -   97.00000      -     -   68s
     0     0   97.00000    0  744          -   97.00000      -     -   69s
     0     0   97.00000    0  733          -   97.00000      -     -   70s
     0     0   97.00000    0  623          -   97.00000      -     -   80s
     0     0   97.00000    0  872          -   97.00000      -     -  129s
     0     0   97.00000    0  868          -   97.00000      -     -  129s
     0     0   97.00000    0  699          -   97.00000      -     -  140s
     0     0   97.00000    0  686          -   97.00000      -     -  141s
H    0     0                     485.0000000   97.00000  80.0%     -  142s
     0     0   97.00000    0  360  485.00000   97.00000  80.0%     -  146s
H    0     0                     418.0000000   97.00000  76.8%     -  153s
H    0     2                     372.0000000   97.00000  73.9%     -  183s
     0     2   97.00000    0  360  372.00000   97.00000  73.9%     -  183s
     1     4   97.00000    1  360  372.00000   97.00000  73.9%  1542  187s
     3     8   97.00000    2  926  372.00000   97.00000  73.9%  1059  203s
     7    10   97.00000    3 1138  372.00000   97.00000  73.9%  1639  247s
    15    16   97.00000    4 1022  372.00000   97.00000  73.9%  1405  288s
    25    29   97.00000    5 1207  372.00000   97.00000  73.9%  1411  339s
H   41    51                     344.0000000   97.00000  71.8%  1355  754s
H   41    51                     337.0000000   97.00000  71.2%  1355  754s
H   42    51                     332.0000000   97.00000  70.8%  1416  754s
H   43    51                     331.0000000   97.00000  70.7%  1430  754s
H   47    51                     313.0000000   97.00000  69.0%  1444  754s
    70    80   97.00000    7 1134  313.00000   97.00000  69.0%  1372 1022s
H  102   108                     298.0000000   97.00000  67.4%  1307 1067s
H  129   108                     292.0000000   97.00000  66.8%  1215 1067s
   134   139   97.00000    9 1008  292.00000   97.00000  66.8%  1208 1078s
H  166   171                     206.0000000   97.00000  52.9%  1004 4701s
H  173   171                     203.0000000   97.00000  52.2%  1124 4711s
H  176   171                     193.0000000   97.00000  49.7%  1107 4715s

Cutting planes:
  Gomory: 53
  Cover: 390
  Implied bound: 628
  Clique: 56
  MIR: 2795
  StrongCG: 51
  Inf proof: 2
  Zero half: 15
  RLT: 1401
  Relax-and-lift: 263

Explored 198 nodes (308231 simplex iterations) in 4797.88 seconds (124.44 work units)
Thread count was 32 (of 32 available processors)

Solution count 10: 193 203 206 ... 344

Time limit reached
Best objective 1.930000000000e+02, best bound 9.700000000000e+01, gap 49.7409%

Wrote result file 'RCPSP_1408.sol'

